\ENCODING=ISO-8859-1
\Problem name: ilog.cplex

Minimize
 obj1: 108684 x1 + 96569 x2 + 92981 x3 + 92685 x4 + 91514 x5 + 101917 x6
       + 98608 x7 + 103930 x8 + 106882 x9 + 93336 x10 + 105953 x11 + 94844 x12
       + 102921 x13 + 90909 x14 + 109151 x15 + 109107 x16 + 97269 x17
       + 98473 x18 + 106393 x19 + 91836 x20 + 103865 x21 + 107878 x22
       + 94564 x23 + 103505 x24 + 101282 x25 + 107994 x26 + 103726 x27
       + 97045 x28 + 92125 x29 + 101819 x30 + 91843 x31 + 107729 x32
       + 96140 x33 + 105258 x34 + 98581 x35 + 93471 x36 + 108478 x37
       + 91898 x38 + 101124 x39 + 101767 x40 + 98937 x41 + 99560 x42
       + 104614 x43 + 108744 x44 + 108018 x45 + 106458 x46 + 95211 x47
       + 95656 x48 + 91300 x49 + 97445 x50 + 94166 x51 + 101916 x52
       + 108711 x53 + 91561 x54 + 96827 x55 + 99452 x56 + 90516 x57
       + 109878 x58 + 99871 x59 + 99917 x60 + 91152 x61 + 106418 x62
       + 98993 x63 + 92028 x64 + 102796 x65 + 105390 x66 + 102769 x67
       + 93838 x68 + 106952 x69 + 99003 x70 + 98561 x71 + 96158 x72
       + 102134 x73 + 107118 x74 + 99434 x75 + 99247 x76 + 101732 x77
       + 95350 x78 + 96487 x79 + 101858 x80 + 104293 x81 + 107005 x82
       + 99306 x83 + 93284 x84 + 104541 x85 + 96183 x86 + 106174 x87
       + 96293 x88 + 90242 x89 + 96871 x90 + 105205 x91 + 91622 x92 + 97331 x93
       + 105995 x94 + 107787 x95 + 103220 x96 + 93740 x97 + 97182 x98
       + 96458 x99 + 97448 x100 + 109196 x101 + 101740 x102 + 100402 x103
       + 97211 x104 + 93195 x105 + 91667 x106 + 105475 x107 + 90117 x108
       + 109747 x109 + 93948 x110 + 93400 x111 + 97507 x112 + 90703 x113
       + 106443 x114 + 100754 x115 + 105061 x116 + 93701 x117 + 92862 x118
       + 108346 x119 + 99703 x120 + 100523 x121 + 101818 x122 + 96644 x123
       + 97620 x124 + 108890 x125 + 100616 x126 + 96562 x127 + 107815 x128
       + 106069 x129 + 94198 x130 + 104405 x131 + 108715 x132 + 97425 x133
       + 103963 x134 + 104777 x135 + 102354 x136 + 93315 x137 + 95991 x138
       + 95925 x139 + 98358 x140 + 93746 x141 + 93721 x142 + 98232 x143
       + 108248 x144 + 91746 x145 + 106229 x146 + 108492 x147 + 99511 x148
       + 103644 x149 + 90009 x150 + 99501 x151 + 102478 x152 + 100768 x153
       + 107473 x154 + 109609 x155 + 101691 x156 + 100565 x157 + 92731 x158
       + 92070 x159 + 108880 x160 + 97933 x161 + 95738 x162 + 96769 x163
       + 102800 x164 + 99824 x165 + 106931 x166 + 108952 x167 + 108691 x168
       + 99572 x169 + 90275 x170 + 103788 x171 + 106828 x172 + 94742 x173
       + 97516 x174 + 100834 x175 + 91031 x176 + 96624 x177 + 109220 x178
       + 92707 x179 + 99943 x180 + 109267 x181 + 108775 x182 + 104619 x183
       + 102006 x184 + 91137 x185 + 98969 x186 + 94425 x187 + 108856 x188
       + 108269 x189 + 99859 x190 + 106449 x191 + 101244 x192 + 104223 x193
       + 101340 x194 + 106585 x195 + 96608 x196 + 109190 x197 + 104169 x198
       + 91034 x199 + 108063 x200 + 100855 x201 + 107387 x202 + 105634 x203
       + 106096 x204 + 104217 x205 + 93659 x206 + 108268 x207 + 100761 x208
       + 104070 x209 + 107770 x210 + 92561 x211 + 95781 x212 + 105183 x213
       + 104593 x214 + 109804 x215 + 96932 x216 + 90147 x217 + 100282 x218
       + 94764 x219 + 101849 x220 + 96938 x221 + 104892 x222 + 99858 x223
       + 90196 x224 + 106841 x225 + 101832 x226 + 94692 x227 + 96480 x228
       + 100173 x229 + 98051 x230 + 100829 x231 + 99743 x232 + 98497 x233
       + 92230 x234 + 108226 x235 + 95519 x236 + 108910 x237 + 92117 x238
       + 101984 x239 + 97157 x240 + 98536 x241 + 96725 x242 + 95890 x243
       + 105991 x244 + 95460 x245 + 104297 x246 + 102693 x247 + 92808 x248
       + 96136 x249 + 42966 x250 + 181156 x251 + 188996 x252 + 190250 x253
       + 202562 x254 + 212548 x255 + 203690 x256 + 207543 x257 + 195880 x258
       + 200465 x259 + 198061 x260 + 183368 x261 + 209071 x262 + 214784 x263
       + 184681 x264 + 196273 x265 + 206071 x266 + 183278 x267 + 189112 x268
       + 206269 x269 + 192855 x270 + 201250 x271 + 198081 x272 + 183226 x273
       + 214154 x274 + 180960 x275 + 203270 x276 + 207016 x277 + 180852 x278
       + 216084 x279 + 211477 x280 + 201544 x281 + 190556 x282 + 181192 x283
       + 198833 x284 + 216410 x285 + 202648 x286 + 214686 x287 + 207424 x288
       + 185296 x289 + 181629 x290 + 205878 x291 + 197057 x292 + 189277 x293
       + 208896 x294 + 182865 x295 + 193115 x296 + 196111 x297 + 183097 x298
       + 217578 x299 + 302625 x300
Subject To
 c1:   - x1 + x10 + x11 - x16 - x18 - x20 + x21 + x22 + x34 + x38 - x42 - x50
        = 0
 c2:   - x51 + x60 + x61 - x66 - x68 - x70 + x71 + x72 + x84 + x88 - x92 - x100
        = 0
 c3:   - x101 + x110 + x111 - x116 - x118 - x120 + x121 + x122 + x134 + x138
       - x142 - x150  = -1
 c4:   - x151 + x160 + x161 - x166 - x168 - x170 + x171 + x172 + x184 + x188
       - x192 - x200  = 0
 c5:   - x201 + x210 + x211 - x216 - x218 - x220 + x221 + x222 + x234 + x238
       - x242 - x250  = 0
 c6:   - x5 + x12 + x18 - x19 + x23 + x26 - x32 - x34 - x35 + x39 + x45  = 0
 c7:   - x55 + x62 + x68 - x69 + x73 + x76 - x82 - x84 - x85 + x89 + x95  = 0
 c8:   - x105 + x112 + x118 - x119 + x123 + x126 - x132 - x134 - x135 + x139
       + x145  = 0
 c9:   - x155 + x162 + x168 - x169 + x173 + x176 - x182 - x184 - x185 + x189
       + x195  = 0
 c10:  - x205 + x212 + x218 - x219 + x223 + x226 - x232 - x234 - x235 + x239
       + x245  = 0
 c11:  x3 - x7 - x8 - x12 - x22 + x31 - x33 + x36 + x42 + x43  = -1
 c12:  x53 - x57 - x58 - x62 - x72 + x81 - x83 + x86 + x92 + x93  = -1
 c13:  x103 - x107 - x108 - x112 - x122 + x131 - x133 + x136 + x142 + x143  = 0
 c14:  x153 - x157 - x158 - x162 - x172 + x181 - x183 + x186 + x192 + x193  = 0
 c15:  x203 - x207 - x208 - x212 - x222 + x231 - x233 + x236 + x242 + x243  = 0
 c16:  x4 + x9 - x13 - x15 - x17 - x24 - x26 + x27 + x33 - x44  = 1
 c17:  x54 + x59 - x63 - x65 - x67 - x74 - x76 + x77 + x83 - x94  = 0
 c18:  x104 + x109 - x113 - x115 - x117 - x124 - x126 + x127 + x133 - x144  = 1
 c19:  x154 + x159 - x163 - x165 - x167 - x174 - x176 + x177 + x183 - x194  = 0
 c20:  x204 + x209 - x213 - x215 - x217 - x224 - x226 + x227 + x233 - x244
        = -1
 c21:  x5 + x7 - x10 + x17 + x40 - x45 - x47 - x49  = 0
 c22:  x55 + x57 - x60 + x67 + x90 - x95 - x97 - x99  = 1
 c23:  x105 + x107 - x110 + x117 + x140 - x145 - x147 - x149  = 0
 c24:  x155 + x157 - x160 + x167 + x190 - x195 - x197 - x199  = 0
 c25:  x205 + x207 - x210 + x217 + x240 - x245 - x247 - x249  = 0
 c26:  x1 + x2 + x6 + x13 - x14 + x19 + x28 - x36 - x37  = 0
 c27:  x51 + x52 + x56 + x63 - x64 + x69 + x78 - x86 - x87  = 0
 c28:  x101 + x102 + x106 + x113 - x114 + x119 + x128 - x136 - x137  = 0
 c29:  x151 + x152 + x156 + x163 - x164 + x169 + x178 - x186 - x187  = 0
 c30:  x201 + x202 + x206 + x213 - x214 + x219 + x228 - x236 - x237  = 0
 c31:  - x6 - x11 + x15 + x16 - x30 + x41 - x43 + x46  = 0
 c32:  - x56 - x61 + x65 + x66 - x80 + x91 - x93 + x96  = 0
 c33:  - x106 - x111 + x115 + x116 - x130 + x141 - x143 + x146  = 0
 c34:  - x156 - x161 + x165 + x166 - x180 + x191 - x193 + x196  = 0
 c35:  - x206 - x211 + x215 + x216 - x230 + x241 - x243 + x246  = 0
 c36:  - x3 - x21 - x25 - x27 - x28 + x29 + x35 - x39 - x40 - x41 + x48  = 0
 c37:  - x53 - x71 - x75 - x77 - x78 + x79 + x85 - x89 - x90 - x91 + x98  = 0
 c38:  - x103 - x121 - x125 - x127 - x128 + x129 + x135 - x139 - x140 - x141
       + x148  = 0
 c39:  - x153 - x171 - x175 - x177 - x178 + x179 + x185 - x189 - x190 - x191
       + x198  = 0
 c40:  - x203 - x221 - x225 - x227 - x228 + x229 + x235 - x239 - x240 - x241
       + x248  = 0
 c41:  - x4 + x14 + x20 + x25 + x30 - x31 + x32 + x44 + x47 - x48  = 0
 c42:  - x54 + x64 + x70 + x75 + x80 - x81 + x82 + x94 + x97 - x98  = 0
 c43:  - x104 + x114 + x120 + x125 + x130 - x131 + x132 + x144 + x147 - x148
        = 0
 c44:  - x154 + x164 + x170 + x175 + x180 - x181 + x182 + x194 + x197 - x198
        = -1
 c45:  - x204 + x214 + x220 + x225 + x230 - x231 + x232 + x244 + x247 - x248
        = 0
 c46:  - x2 + x8 - x9 - x23 + x24 - x29 + x37 - x38 - x46 + x49 + x50  = 0
 c47:  - x52 + x58 - x59 - x73 + x74 - x79 + x87 - x88 - x96 + x99 + x100  = 0
 c48:  - x102 + x108 - x109 - x123 + x124 - x129 + x137 - x138 - x146 + x149
       + x150  = 0
 c49:  - x152 + x158 - x159 - x173 + x174 - x179 + x187 - x188 - x196 + x199
       + x200  = 1
 c50:  - x202 + x208 - x209 - x223 + x224 - x229 + x237 - x238 - x246 + x249
       + x250  = 1
 c51:  4 x1 + 4 x51 + 4 x101 + 4 x151 + 4 x201 - 10 x251 <= 0
 c52:  4 x2 + 4 x52 + 4 x102 + 4 x152 + 4 x202 - 9 x252 <= 0
 c53:  4 x3 + 4 x53 + 4 x103 + 4 x153 + 4 x203 - 10 x253 <= 0
 c54:  4 x4 + 4 x54 + 4 x104 + 4 x154 + 4 x204 - 10 x254 <= 0
 c55:  4 x5 + 4 x55 + 4 x105 + 4 x155 + 4 x205 - 9 x255 <= 0
 c56:  4 x6 + 4 x56 + 4 x106 + 4 x156 + 4 x206 - 11 x256 <= 0
 c57:  4 x7 + 4 x57 + 4 x107 + 4 x157 + 4 x207 - 9 x257 <= 0
 c58:  4 x8 + 4 x58 + 4 x108 + 4 x158 + 4 x208 - 9 x258 <= 0
 c59:  4 x9 + 4 x59 + 4 x109 + 4 x159 + 4 x209 - 10 x259 <= 0
 c60:  4 x10 + 4 x60 + 4 x110 + 4 x160 + 4 x210 - 9 x260 <= 0
 c61:  4 x11 + 4 x61 + 4 x111 + 4 x161 + 4 x211 - 10 x261 <= 0
 c62:  4 x12 + 4 x62 + 4 x112 + 4 x162 + 4 x212 - 10 x262 <= 0
 c63:  4 x13 + 4 x63 + 4 x113 + 4 x163 + 4 x213 - 10 x263 <= 0
 c64:  4 x14 + 4 x64 + 4 x114 + 4 x164 + 4 x214 - 11 x264 <= 0
 c65:  4 x15 + 4 x65 + 4 x115 + 4 x165 + 4 x215 - 10 x265 <= 0
 c66:  4 x16 + 4 x66 + 4 x116 + 4 x166 + 4 x216 - 10 x266 <= 0
 c67:  4 x17 + 4 x67 + 4 x117 + 4 x167 + 4 x217 - 11 x267 <= 0
 c68:  4 x18 + 4 x68 + 4 x118 + 4 x168 + 4 x218 - 11 x268 <= 0
 c69:  4 x19 + 4 x69 + 4 x119 + 4 x169 + 4 x219 - 9 x269 <= 0
 c70:  4 x20 + 4 x70 + 4 x120 + 4 x170 + 4 x220 - 10 x270 <= 0
 c71:  4 x21 + 4 x71 + 4 x121 + 4 x171 + 4 x221 - 9 x271 <= 0
 c72:  4 x22 + 4 x72 + 4 x122 + 4 x172 + 4 x222 - 11 x272 <= 0
 c73:  4 x23 + 4 x73 + 4 x123 + 4 x173 + 4 x223 - 10 x273 <= 0
 c74:  4 x24 + 4 x74 + 4 x124 + 4 x174 + 4 x224 - 11 x274 <= 0
 c75:  4 x25 + 4 x75 + 4 x125 + 4 x175 + 4 x225 - 10 x275 <= 0
 c76:  4 x26 + 4 x76 + 4 x126 + 4 x176 + 4 x226 - 10 x276 <= 0
 c77:  4 x27 + 4 x77 + 4 x127 + 4 x177 + 4 x227 - 11 x277 <= 0
 c78:  4 x28 + 4 x78 + 4 x128 + 4 x178 + 4 x228 - 10 x278 <= 0
 c79:  4 x29 + 4 x79 + 4 x129 + 4 x179 + 4 x229 - 11 x279 <= 0
 c80:  4 x30 + 4 x80 + 4 x130 + 4 x180 + 4 x230 - 10 x280 <= 0
 c81:  4 x31 + 4 x81 + 4 x131 + 4 x181 + 4 x231 - 9 x281 <= 0
 c82:  4 x32 + 4 x82 + 4 x132 + 4 x182 + 4 x232 - 10 x282 <= 0
 c83:  4 x33 + 4 x83 + 4 x133 + 4 x183 + 4 x233 - 10 x283 <= 0
 c84:  4 x34 + 4 x84 + 4 x134 + 4 x184 + 4 x234 - 10 x284 <= 0
 c85:  4 x35 + 4 x85 + 4 x135 + 4 x185 + 4 x235 - 10 x285 <= 0
 c86:  4 x36 + 4 x86 + 4 x136 + 4 x186 + 4 x236 - 11 x286 <= 0
 c87:  4 x37 + 4 x87 + 4 x137 + 4 x187 + 4 x237 - 10 x287 <= 0
 c88:  4 x38 + 4 x88 + 4 x138 + 4 x188 + 4 x238 - 11 x288 <= 0
 c89:  4 x39 + 4 x89 + 4 x139 + 4 x189 + 4 x239 - 11 x289 <= 0
 c90:  4 x40 + 4 x90 + 4 x140 + 4 x190 + 4 x240 - 9 x290 <= 0
 c91:  4 x41 + 4 x91 + 4 x141 + 4 x191 + 4 x241 - 9 x291 <= 0
 c92:  4 x42 + 4 x92 + 4 x142 + 4 x192 + 4 x242 - 11 x292 <= 0
 c93:  4 x43 + 4 x93 + 4 x143 + 4 x193 + 4 x243 - 11 x293 <= 0
 c94:  4 x44 + 4 x94 + 4 x144 + 4 x194 + 4 x244 - 10 x294 <= 0
 c95:  4 x45 + 4 x95 + 4 x145 + 4 x195 + 4 x245 - 9 x295 <= 0
 c96:  4 x46 + 4 x96 + 4 x146 + 4 x196 + 4 x246 - 9 x296 <= 0
 c97:  4 x47 + 4 x97 + 4 x147 + 4 x197 + 4 x247 - 10 x297 <= 0
 c98:  4 x48 + 4 x98 + 4 x148 + 4 x198 + 4 x248 - 11 x298 <= 0
 c99:  4 x49 + 4 x99 + 4 x149 + 4 x199 + 4 x249 - 10 x299 <= 0
 c100: 4 x50 + 4 x100 + 4 x150 + 4 x200 + 4 x250 - 8 x300 <= 0
Bounds
 0 <= x1 <= 1
 0 <= x2 <= 1
 0 <= x3 <= 1
 0 <= x4 <= 1
 0 <= x5 <= 1
 0 <= x6 <= 1
 0 <= x7 <= 1
 0 <= x8 <= 1
 0 <= x9 <= 1
 0 <= x10 <= 1
 0 <= x11 <= 1
 0 <= x12 <= 1
 0 <= x13 <= 1
 0 <= x14 <= 1
 0 <= x15 <= 1
 0 <= x16 <= 1
 0 <= x17 <= 1
 0 <= x18 <= 1
 0 <= x19 <= 1
 0 <= x20 <= 1
 0 <= x21 <= 1
 0 <= x22 <= 1
 0 <= x23 <= 1
 0 <= x24 <= 1
 0 <= x25 <= 1
 0 <= x26 <= 1
 0 <= x27 <= 1
 0 <= x28 <= 1
 0 <= x29 <= 1
 0 <= x30 <= 1
 0 <= x31 <= 1
 0 <= x32 <= 1
 0 <= x33 <= 1
 0 <= x34 <= 1
 0 <= x35 <= 1
 0 <= x36 <= 1
 0 <= x37 <= 1
 0 <= x38 <= 1
 0 <= x39 <= 1
 0 <= x40 <= 1
 0 <= x41 <= 1
 0 <= x42 <= 1
 0 <= x43 <= 1
 0 <= x44 <= 1
 0 <= x45 <= 1
 0 <= x46 <= 1
 0 <= x47 <= 1
 0 <= x48 <= 1
 0 <= x49 <= 1
 0 <= x50 <= 1
 0 <= x51 <= 1
 0 <= x52 <= 1
 0 <= x53 <= 1
 0 <= x54 <= 1
 0 <= x55 <= 1
 0 <= x56 <= 1
 0 <= x57 <= 1
 0 <= x58 <= 1
 0 <= x59 <= 1
 0 <= x60 <= 1
 0 <= x61 <= 1
 0 <= x62 <= 1
 0 <= x63 <= 1
 0 <= x64 <= 1
 0 <= x65 <= 1
 0 <= x66 <= 1
 0 <= x67 <= 1
 0 <= x68 <= 1
 0 <= x69 <= 1
 0 <= x70 <= 1
 0 <= x71 <= 1
 0 <= x72 <= 1
 0 <= x73 <= 1
 0 <= x74 <= 1
 0 <= x75 <= 1
 0 <= x76 <= 1
 0 <= x77 <= 1
 0 <= x78 <= 1
 0 <= x79 <= 1
 0 <= x80 <= 1
 0 <= x81 <= 1
 0 <= x82 <= 1
 0 <= x83 <= 1
 0 <= x84 <= 1
 0 <= x85 <= 1
 0 <= x86 <= 1
 0 <= x87 <= 1
 0 <= x88 <= 1
 0 <= x89 <= 1
 0 <= x90 <= 1
 0 <= x91 <= 1
 0 <= x92 <= 1
 0 <= x93 <= 1
 0 <= x94 <= 1
 0 <= x95 <= 1
 0 <= x96 <= 1
 0 <= x97 <= 1
 0 <= x98 <= 1
 0 <= x99 <= 1
 0 <= x100 <= 1
 0 <= x101 <= 1
 0 <= x102 <= 1
 0 <= x103 <= 1
 0 <= x104 <= 1
 0 <= x105 <= 1
 0 <= x106 <= 1
 0 <= x107 <= 1
 0 <= x108 <= 1
 0 <= x109 <= 1
 0 <= x110 <= 1
 0 <= x111 <= 1
 0 <= x112 <= 1
 0 <= x113 <= 1
 0 <= x114 <= 1
 0 <= x115 <= 1
 0 <= x116 <= 1
 0 <= x117 <= 1
 0 <= x118 <= 1
 0 <= x119 <= 1
 0 <= x120 <= 1
 0 <= x121 <= 1
 0 <= x122 <= 1
 0 <= x123 <= 1
 0 <= x124 <= 1
 0 <= x125 <= 1
 0 <= x126 <= 1
 0 <= x127 <= 1
 0 <= x128 <= 1
 0 <= x129 <= 1
 0 <= x130 <= 1
 0 <= x131 <= 1
 0 <= x132 <= 1
 0 <= x133 <= 1
 0 <= x134 <= 1
 0 <= x135 <= 1
 0 <= x136 <= 1
 0 <= x137 <= 1
 0 <= x138 <= 1
 0 <= x139 <= 1
 0 <= x140 <= 1
 0 <= x141 <= 1
 0 <= x142 <= 1
 0 <= x143 <= 1
 0 <= x144 <= 1
 0 <= x145 <= 1
 0 <= x146 <= 1
 0 <= x147 <= 1
 0 <= x148 <= 1
 0 <= x149 <= 1
 0 <= x150 <= 1
 0 <= x151 <= 1
 0 <= x152 <= 1
 0 <= x153 <= 1
 0 <= x154 <= 1
 0 <= x155 <= 1
 0 <= x156 <= 1
 0 <= x157 <= 1
 0 <= x158 <= 1
 0 <= x159 <= 1
 0 <= x160 <= 1
 0 <= x161 <= 1
 0 <= x162 <= 1
 0 <= x163 <= 1
 0 <= x164 <= 1
 0 <= x165 <= 1
 0 <= x166 <= 1
 0 <= x167 <= 1
 0 <= x168 <= 1
 0 <= x169 <= 1
 0 <= x170 <= 1
 0 <= x171 <= 1
 0 <= x172 <= 1
 0 <= x173 <= 1
 0 <= x174 <= 1
 0 <= x175 <= 1
 0 <= x176 <= 1
 0 <= x177 <= 1
 0 <= x178 <= 1
 0 <= x179 <= 1
 0 <= x180 <= 1
 0 <= x181 <= 1
 0 <= x182 <= 1
 0 <= x183 <= 1
 0 <= x184 <= 1
 0 <= x185 <= 1
 0 <= x186 <= 1
 0 <= x187 <= 1
 0 <= x188 <= 1
 0 <= x189 <= 1
 0 <= x190 <= 1
 0 <= x191 <= 1
 0 <= x192 <= 1
 0 <= x193 <= 1
 0 <= x194 <= 1
 0 <= x195 <= 1
 0 <= x196 <= 1
 0 <= x197 <= 1
 0 <= x198 <= 1
 0 <= x199 <= 1
 0 <= x200 <= 1
 0 <= x201 <= 1
 0 <= x202 <= 1
 0 <= x203 <= 1
 0 <= x204 <= 1
 0 <= x205 <= 1
 0 <= x206 <= 1
 0 <= x207 <= 1
 0 <= x208 <= 1
 0 <= x209 <= 1
 0 <= x210 <= 1
 0 <= x211 <= 1
 0 <= x212 <= 1
 0 <= x213 <= 1
 0 <= x214 <= 1
 0 <= x215 <= 1
 0 <= x216 <= 1
 0 <= x217 <= 1
 0 <= x218 <= 1
 0 <= x219 <= 1
 0 <= x220 <= 1
 0 <= x221 <= 1
 0 <= x222 <= 1
 0 <= x223 <= 1
 0 <= x224 <= 1
 0 <= x225 <= 1
 0 <= x226 <= 1
 0 <= x227 <= 1
 0 <= x228 <= 1
 0 <= x229 <= 1
 0 <= x230 <= 1
 0 <= x231 <= 1
 0 <= x232 <= 1
 0 <= x233 <= 1
 0 <= x234 <= 1
 0 <= x235 <= 1
 0 <= x236 <= 1
 0 <= x237 <= 1
 0 <= x238 <= 1
 0 <= x239 <= 1
 0 <= x240 <= 1
 0 <= x241 <= 1
 0 <= x242 <= 1
 0 <= x243 <= 1
 0 <= x244 <= 1
 0 <= x245 <= 1
 0 <= x246 <= 1
 0 <= x247 <= 1
 0 <= x248 <= 1
 0 <= x249 <= 1
 0 <= x250 <= 1
 0 <= x251 <= 1
 0 <= x252 <= 1
 0 <= x253 <= 1
 0 <= x254 <= 1
 0 <= x255 <= 1
 0 <= x256 <= 1
 0 <= x257 <= 1
 0 <= x258 <= 1
 0 <= x259 <= 1
 0 <= x260 <= 1
 0 <= x261 <= 1
 0 <= x262 <= 1
 0 <= x263 <= 1
 0 <= x264 <= 1
 0 <= x265 <= 1
 0 <= x266 <= 1
 0 <= x267 <= 1
 0 <= x268 <= 1
 0 <= x269 <= 1
 0 <= x270 <= 1
 0 <= x271 <= 1
 0 <= x272 <= 1
 0 <= x273 <= 1
 0 <= x274 <= 1
 0 <= x275 <= 1
 0 <= x276 <= 1
 0 <= x277 <= 1
 0 <= x278 <= 1
 0 <= x279 <= 1
 0 <= x280 <= 1
 0 <= x281 <= 1
 0 <= x282 <= 1
 0 <= x283 <= 1
 0 <= x284 <= 1
 0 <= x285 <= 1
 0 <= x286 <= 1
 0 <= x287 <= 1
 0 <= x288 <= 1
 0 <= x289 <= 1
 0 <= x290 <= 1
 0 <= x291 <= 1
 0 <= x292 <= 1
 0 <= x293 <= 1
 0 <= x294 <= 1
 0 <= x295 <= 1
 0 <= x296 <= 1
 0 <= x297 <= 1
 0 <= x298 <= 1
 0 <= x299 <= 1
 0 <= x300 <= 1
Binaries
 x251  x252  x253  x254  x255  x256  x257  x258  x259  x260  x261  x262  x263 
 x264  x265  x266  x267  x268  x269  x270  x271  x272  x273  x274  x275  x276 
 x277  x278  x279  x280  x281  x282  x283  x284  x285  x286  x287  x288  x289 
 x290  x291  x292  x293  x294  x295  x296  x297  x298  x299  x300 
End
